Selected objective sense:  MINIMIZE
Selected objective  name:  OBJ
Selected RHS        name:  RHS1
Selected bound      name:  BND1
CPXPARAM_Preprocessing_Presolve                  0
CPXPARAM_LPMethod                                4
CPXPARAM_Threads                                 1
CPXPARAM_SolutionType                            2
CPXPARAM_TimeLimit                               3600
Tried aggregator 0 times.
Reduced presolve eliminated 47 rows and 47 columns.
Reduced LP has 4073 rows, 24508 columns, and 550359 nonzeros.
Presolve time = 0.12 sec. (65.39 ticks)
Parallel mode: none, using 1 thread for barrier
Number of nonzeros in lower triangle of A*A' = 92401
Using Approximate Minimum Degree ordering
Total time for automatic ordering = 0.01 sec. (21.00 ticks)
Summary statistics for Cholesky factor:
  Rows in Factor            = 4073
  Integer space required    = 95646
  Total non-zeros in factor = 96727
  Total FP ops to factor    = 2333359
 Itn      Primal Obj        Dual Obj  Prim Inf Upper Inf  Dual Inf Inf Ratio
   0   1.6306613e+08  -2.3740084e+06  1.53e+08  0.00e+00  7.49e+05  1.00e+00
   1   1.8133524e+07  -6.3154426e+05  1.54e+07  5.87e-12  4.47e+05  8.60e-03
   2   7.8637134e+05  -3.5250617e+05  9.47e+05  6.17e-12  6.97e+02  1.29e+00
   3   3.4407329e+04  -1.6955205e+05  1.05e+05  2.97e-12  2.63e+02  1.29e+00
   4   6.7457757e+03  -3.2746983e+04  7.86e+03  6.70e-12  5.62e+01  1.34e+00
   5   5.9698948e+03   3.8481476e+03  9.57e+01  7.29e-12  3.07e+00  1.84e+01
   6   5.9236428e+03   5.1851218e+03  6.57e+01  4.28e-12  9.91e-01  4.04e+01
   7   5.8444429e+03   5.6682000e+03  1.72e+01  3.90e-12  2.33e-01  1.61e+02
   8   5.8333494e+03   5.7525283e+03  1.32e+01  7.94e-12  8.02e-02  4.27e+02
   9   5.8178603e+03   5.7802568e+03  8.32e+00  6.15e-12  2.29e-02  1.13e+03
  10   5.8107910e+03   5.7852117e+03  5.86e+00  4.05e-12  1.46e-02  1.57e+03
  11   5.8105478e+03   5.7888612e+03  5.76e+00  5.75e-12  1.00e-02  2.09e+03
  12   5.8081353e+03   5.7892300e+03  4.80e+00  4.11e-12  9.50e-03  2.17e+03
  13   5.8062844e+03   5.7928060e+03  4.04e+00  4.10e-12  4.85e-03  3.54e+03
  14   5.8056764e+03   5.7950656e+03  3.79e+00  1.29e-11  1.85e-03  6.27e+03
  15   5.8053206e+03   5.7951836e+03  3.65e+00  6.63e-12  1.65e-03  6.60e+03
  16   5.8008305e+03   5.7955454e+03  1.70e+00  2.43e-12  1.30e-03  7.85e+03
  17   5.7988786e+03   5.7967295e+03  8.04e-01  1.04e-11  3.26e-04  1.91e+04
  18   5.7983312e+03   5.7969268e+03  5.34e-01  4.57e-12  2.02e-04  2.75e+04
  19   5.7979688e+03   5.7970800e+03  3.42e-01  5.21e-12  1.23e-04  4.22e+04
  20   5.7978410e+03   5.7972090e+03  2.75e-01  8.48e-12  5.72e-05  7.70e+04
  21   5.7977992e+03   5.7972757e+03  2.53e-01  3.39e-12  1.84e-05  1.47e+05
  22   5.7977355e+03   5.7972795e+03  2.21e-01  4.13e-12  1.49e-05  1.57e+05
  23   5.7975588e+03   5.7972837e+03  1.26e-01  3.41e-12  1.35e-05  1.70e+05
  24   5.7975471e+03   5.7972884e+03  1.19e-01  4.68e-12  1.25e-05  1.80e+05
  25   5.7975053e+03   5.7973138e+03  9.62e-02  4.82e-12  4.98e-06  3.20e+05
  26   5.7974871e+03   5.7973257e+03  8.63e-02  8.51e-12  1.25e-06  5.38e+05
  27   5.7974315e+03   5.7973283e+03  5.41e-02  5.99e-12  9.85e-07  6.38e+05
  28   5.7974023e+03   5.7973361e+03  3.69e-02  8.11e-12  2.99e-07  1.39e+06
  29   5.7973952e+03   5.7973370e+03  3.29e-02  1.22e-11  7.49e-08  1.57e+06
  30   5.7973890e+03   5.7973402e+03  2.91e-02  1.74e-11  1.51e-08  3.67e+06
  31   5.7973654e+03   5.7973399e+03  1.51e-02  3.52e-12  2.58e-09  3.16e+06
  32   5.7973531e+03   5.7973404e+03  7.24e-03  4.70e-12  1.95e-09  3.85e+06
  33   5.7973484e+03   5.7973416e+03  4.14e-03  3.93e-12  5.25e-10  8.13e+06
  34   5.7973439e+03   5.7973420e+03  1.03e-03  1.09e-11  2.68e-10  1.20e+07
  35   5.7973439e+03   5.7973425e+03  1.03e-03  2.06e-11  1.11e-10  5.52e+07
  36   5.7973430e+03   5.7973426e+03  2.57e-04  1.17e-11  8.13e-11  6.29e+07
  37   5.7973429e+03   5.7973427e+03  1.76e-04  3.67e-12  6.51e-11  2.44e+08
  38   5.7973428e+03   5.7973427e+03  4.13e-05  3.67e-12  1.41e-10  5.15e+08
Barrier time = 1.08 sec. (1954.61 ticks)

Total time on 1 threads = 1.08 sec. (1954.61 ticks)
Solve time: 1.083214892
Barrier iterations: 38
